NAME: line_44_95
TYPE: TSP
COMMENT: srandom_44_95
DIMENSION: 44
EDGE_WEIGHT_TYPE: EUC_2D
NODE_COORD_SECTION
1 2980 1466
2 3403 3627
3 3119 2753
4 2745 4469
5 3150 4476
6 3567 2252
7 4254 900
8 3028 4093
9 2105 400
10 1339 4700
11 2311 4018
12 4116 1964
13 1495 3227
14 3727 4140
15 4898 2562
16 1795 4550
17 3363 254
18 3945 4616
19 620 355
20 3556 3017
21 222 3529
22 3965 1759
23 4038 1876
24 411 1978
25 930 1142
26 1682 1483
27 1628 4826
28 2287 4661
29 4251 474
30 1867 1755
31 3592 451
32 1119 4294
33 3912 3536
34 1322 3805
35 3505 1129
36 3453 355
37 2552 1453
38 4567 868
39 2294 3406
40 474 3452
41 3805 3286
42 2978 4669
43 4688 4061
44 2353 2894
